DIMACS2
40 293 128 297 245 92 173 165 65 115 71 194 17 208 50 273 0 155 137 268 5 294 255 305 60 101 272 160 123 138 41 288 96 2 126 34 262 185 283 215 193
p edge 320 1311
e 0 175 10.0
e 0 88 43.0
e 0 69 9.0
e 0 92 3.0
e 1 214 1.0
e 1 44 2.0
e 1 246 1.0
e 1 78 1.0
e 2 45 6.0
e 2 272 10.0
e 2 126 7.0
e 2 163 19.0
e 2 137 6.0
e 3 188 1.0
e 3 104 1.0
e 3 36 1.0
e 3 33 1.0
e 4 69 1.0
e 4 191 2.0
e 4 87 1.0
e 4 3 1.0
e 5 144 28.0
e 5 303 1.0
e 5 151 33.0
e 5 254 3.0
e 5 101 40.0
e 5 65 30.0
e 6 187 3.0
e 6 181 1.0
e 6 241 1.0
e 6 215 33.0
e 7 275 2.0
e 7 29 2.0
e 7 175 1.0
e 7 108 1.0
e 8 310 1.0
e 8 46 1.0
e 8 6 1.0
e 8 246 1.0
e 9 222 1.0
e 9 197 1.0
e 9 272 46.0
e 9 28 1.0
e 10 157 1.0
e 10 309 1.0
e 10 253 1.0
e 10 120 1.0
e 11 89 2.0
e 11 220 1.0
e 11 125 2.0
e 11 22 1.0
e 12 252 1.0
e 12 40 1.0
e 12 242 1.0
e 12 0 27.0
e 13 80 2.0
e 13 100 1.0
e 13 143 2.0
e 13 47 2.0
e 14 104 1.0
e 14 185 6.0
e 14 314 2.0
e 14 46 1.0
e 15 192 1.0
e 15 168 2.0
e 15 267 1.0
e 15 153 1.0
e 16 88 1.0
e 16 283 26.0
e 16 207 1.0
e 16 17 14.0
e 17 52 45.0
e 17 205 37.0
e 17 111 19.0
e 17 304 26.0
e 17 2 44.0
e 17 245 4.0
e 18 171 1.0
e 18 132 1.0
e 18 192 1.0
e 18 277 1.0
e 19 32 2.0
e 19 65 13.0
e 19 216 1.0
e 19 246 1.0
e 20 194 36.0
e 20 8 1.0
e 20 16 1.0
e 20 50 28.0
e 21 158 1.0
e 21 173 37.0
e 21 58 1.0
e 21 232 1.0
e 22 55 1.0
e 22 237 1.0
e 22 52 2.0
e 22 208 35.0
e 23 206 1.0
e 23 86 1.0
e 23 201 1.0
e 23 199 2.0
e 24 316 1.0
e 24 176 2.0
e 24 139 1.0
e 24 275 1.0
e 25 149 3.0
e 25 193 45.0
e 25 300 1.0
e 25 187 2.0
e 26 114 1.0
e 26 309 1.0
e 26 237 1.0
e 26 291 2.0
e 27 67 1.0
e 27 121 1.0
e 27 130 1.0
e 27 184 1.0
e 28 46 1.0
e 28 288 8.0
e 28 258 1.0
e 28 22 1.0
e 29 68 2.0
e 29 30 2.0
e 29 287 1.0
e 29 252 1.0
e 30 0 45.0
e 30 207 2.0
e 30 299 2.0
e 30 243 1.0
e 31 26 2.0
e 31 314 1.0
e 31 189 3.0
e 31 71 20.0
e 32 142 1.0
e 32 310 1.0
e 32 80 1.0
e 32 219 1.0
e 33 312 1.0
e 33 129 1.0
e 33 256 1.0
e 33 197 2.0
e 34 231 27.0
e 34 146 12.0
e 34 14 33.0
e 34 206 6.0
e 34 96 7.0
e 34 123 38.0
e 34 41 48.0
e 35 295 1.0
e 35 58 1.0
e 35 96 42.0
e 35 210 1.0
e 36 11 3.0
e 36 133 1.0
e 36 200 1.0
e 36 95 1.0
e 37 238 2.0
e 37 185 8.0
e 37 184 1.0
e 37 200 1.0
e 38 318 3.0
e 38 102 1.0
e 38 306 1.0
e 38 53 2.0
e 39 64 2.0
e 39 120 1.0
e 39 161 1.0
e 39 19 1.0
e 40 312 1.0
e 40 109 1.0
e 40 60 45.0
e 40 182 1.0
e 41 129 6.0
e 41 206 47.0
e 41 239 29.0
e 41 38 18.0
e 41 50 44.0
e 42 212 1.0
e 42 79 2.0
e 42 210 1.0
e 42 185 3.0
e 43 134 1.0
e 43 15 1.0
e 43 285 1.0
e 43 265 1.0
e 44 171 1.0
e 44 308 1.0
e 44 271 2.0
e 44 273 46.0
e 45 119 2.0
e 45 315 1.0
e 45 1 2.0
e 45 277 2.0
e 46 115 5.0
e 46 296 1.0
e 46 26 1.0
e 46 313 1.0
e 47 33 1.0
e 47 256 2.0
e 47 172 1.0
e 47 53 1.0
e 48 38 2.0
e 48 278 1.0
e 48 105 1.0
e 48 4 1.0
e 49 134 1.0
e 49 272 31.0
e 49 176 1.0
e 49 271 1.0
e 50 71 23.0
e 50 204 20.0
e 50 160 6.0
e 50 48 9.0
e 50 262 30.0
e 51 262 1.0
e 51 20 1.0
e 51 166 1.0
e 51 87 2.0
e 52 12 2.0
e 52 49 1.0
e 52 78 1.0
e 52 174 2.0
e 53 68 2.0
e 53 121 1.0
e 53 201 1.0
e 53 279 2.0
e 54 132 1.0
e 54 233 1.0
e 54 279 1.0
e 54 277 1.0
e 55 140 1.0
e 55 61 1.0
e 55 101 37.0
e 55 75 1.0
e 56 81 2.0
e 56 224 2.0
e 56 91 1.0
e 56 260 1.0
e 57 171 2.0
e 57 178 2.0
e 57 198 1.0
e 57 126 13.0
e 58 168 1.0
e 58 198 1.0
e 58 204 1.0
e 58 316 1.0
e 59 121 2.0
e 59 280 2.0
e 59 190 2.0
e 59 85 1.0
e 60 11 49.0
e 60 13 36.0
e 60 293 36.0
e 60 63 45.0
e 61 32 1.0
e 61 135 3.0
e 61 58 1.0
e 61 178 1.0
e 62 48 1.0
e 62 101 49.0
e 62 79 1.0
e 62 81 1.0
e 63 107 1.0
e 63 227 1.0
e 63 95 1.0
e 63 314 2.0
e 64 102 1.0
e 64 163 3.0
e 64 34 27.0
e 65 94 19.0
e 65 165 15.0
e 65 12 1.0
e 65 46 41.0
e 66 164 2.0
e 66 183 1.0
e 66 86 2.0
e 66 231 1.0
e 67 21 1.0
e 67 192 1.0
e 67 258 1.0
e 67 214 1.0
e 68 37 1.0
e 68 119 1.0
e 68 290 2.0
e 68 125 2.0
e 69 79 3.0
e 69 40 1.0
e 69 42 2.0
e 69 299 2.0
e 70 189 1.0
e 70 300 1.0
e 70 121 1.0
e 70 282 1.0
e 71 210 5.0
e 71 270 24.0
e 71 195 28.0
e 71 75 6.0
e 71 92 39.0
e 71 137 34.0
e 72 187 1.0
e 72 54 1.0
e 72 310 1.0
e 72 68 1.0
e 73 223 1.0
e 73 158 1.0
e 73 177 1.0
e 73 88 1.0
e 74 54 1.0
e 74 281 1.0
e 74 229 1.0
e 74 56 1.0
e 75 15 2.0
e 75 215 41.0
e 75 141 1.0
e 75 52 1.0
e 76 61 1.0
e 76 130 1.0
e 76 271 1.0
e 76 302 1.0
e 77 313 1.0
e 77 310 1.0
e 77 246 1.0
e 77 299 1.0
e 78 30 1.0
e 78 155 27.0
e 78 142 1.0
e 78 148 1.0
e 79 295 1.0
e 79 60 24.0
e 79 243 1.0
e 79 192 1.0
e 80 272 36.0
e 80 33 1.0
e 80 225 1.0
e 80 166 2.0
e 81 187 2.0
e 81 274 2.0
e 81 238 1.0
e 81 259 1.0
e 82 190 1.0
e 82 123 21.0
e 82 94 1.0
e 82 45 1.0
e 83 21 1.0
e 83 13 1.0
e 83 31 1.0
e 83 296 1.0
e 84 183 1.0
e 84 109 2.0
e 84 289 2.0
e 84 33 1.0
e 85 112 1.0
e 85 15 1.0
e 85 215 30.0
e 85 250 2.0
e 86 63 1.0
e 86 174 2.0
e 86 92 8.0
e 86 129 1.0
e 87 225 2.0
e 87 8 1.0
e 87 94 1.0
e 87 95 1.0
e 88 228 2.0
e 88 301 1.0
e 88 129 2.0
e 88 140 1.0
e 89 16 1.0
e 89 21 1.0
e 89 232 1.0
e 89 38 2.0
e 90 167 1.0
e 90 49 2.0
e 90 82 2.0
e 90 93 2.0
e 91 258 1.0
e 91 204 1.0
e 91 305 21.0
e 91 301 2.0
e 92 247 28.0
e 92 76 36.0
e 92 24 43.0
e 92 179 26.0
e 92 155 1.0
e 93 9 1.0
e 93 234 1.0
e 93 112 1.0
e 93 47 2.0
e 94 21 1.0
e 94 213 3.0
e 94 212 2.0
e 94 294 26.0
e 95 315 1.0
e 95 205 1.0
e 95 213 1.0
e 95 149 1.0
e 96 149 7.0
e 96 265 16.0
e 96 218 23.0
e 96 6 3.0
e 97 47 2.0
e 97 310 1.0
e 97 6 1.0
e 97 54 1.0
e 98 6 1.0
e 98 34 17.0
e 98 122 1.0
e 98 81 2.0
e 99 167 1.0
e 99 76 1.0
e 99 258 1.0
e 99 272 7.0
e 100 138 17.0
e 100 173 21.0
e 100 226 1.0
e 100 184 1.0
e 101 138 22.0
e 101 232 47.0
e 101 178 44.0
e 101 276 27.0
e 102 139 1.0
e 102 154 1.0
e 102 10 1.0
e 102 314 2.0
e 103 307 1.0
e 103 10 1.0
e 103 117 1.0
e 103 182 1.0
e 104 239 1.0
e 104 88 1.0
e 104 100 1.0
e 105 213 1.0
e 105 21 1.0
e 105 104 2.0
e 105 74 1.0
e 106 303 2.0
e 106 105 1.0
e 106 94 1.0
e 106 262 15.0
e 107 208 20.0
e 107 67 1.0
e 107 211 2.0
e 107 108 1.0
e 108 98 2.0
e 108 133 1.0
e 108 230 1.0
e 108 287 1.0
e 109 238 2.0
e 109 302 2.0
e 109 288 12.0
e 109 53 1.0
e 110 273 27.0
e 110 313 2.0
e 110 129 2.0
e 110 270 2.0
e 111 46 1.0
e 111 198 1.0
e 111 88 1.0
e 111 152 1.0
e 112 30 1.0
e 112 35 1.0
e 112 259 1.0
e 112 153 2.0
e 113 152 1.0
e 113 211 1.0
e 113 96 26.0
e 114 49 2.0
e 114 118 1.0
e 114 221 1.0
e 114 6 1.0
e 115 99 23.0
e 115 10 45.0
e 115 28 7.0
e 115 143 24.0
e 115 173 12.0
e 116 115 12.0
e 116 24 1.0
e 116 143 3.0
e 116 182 1.0
e 117 30 2.0
e 117 113 1.0
e 117 240 2.0
e 117 245 31.0
e 118 288 46.0
e 118 89 1.0
e 118 48 1.0
e 118 291 1.0
e 119 153 1.0
e 119 84 1.0
e 119 40 1.0
e 119 272 6.0
e 120 160 14.0
e 120 126 7.0
e 120 139 1.0
e 120 311 1.0
e 121 288 9.0
e 121 188 1.0
e 121 150 2.0
e 121 299 3.0
e 122 2 35.0
e 122 23 1.0
e 122 214 2.0
e 122 16 2.0
e 123 41 49.0
e 123 282 28.0
e 123 312 41.0
e 123 16 45.0
e 123 92 6.0
e 123 208 22.0
e 123 155 33.0
e 124 309 1.0
e 124 297 8.0
e 124 154 1.0
e 124 146 1.0
e 125 142 2.0
e 125 16 1.0
e 125 5 16.0
e 125 58 2.0
e 126 139 9.0
e 126 316 8.0
e 126 210 40.0
e 126 10 28.0
e 126 268 26.0
e 127 275 1.0
e 127 105 1.0
e 127 26 1.0
e 127 120 1.0
e 128 211 13.0
e 128 47 30.0
e 128 116 32.0
e 128 135 46.0
e 128 34 44.0
e 128 96 37.0
e 128 5 34.0
e 128 245 43.0
e 129 8 1.0
e 129 18 1.0
e 129 195 2.0
e 129 285 3.0
e 130 113 2.0
e 130 180 1.0
e 130 237 2.0
e 130 67 1.0
e 131 251 1.0
e 131 83 3.0
e 131 252 1.0
e 131 258 1.0
e 132 205 1.0
e 132 156 1.0
e 132 219 1.0
e 133 310 1.0
e 133 237 1.0
e 133 157 2.0
e 133 173 19.0
e 134 184 1.0
e 134 65 19.0
e 134 260 2.0
e 134 97 3.0
e 135 169 1.0
e 135 269 2.0
e 136 116 1.0
e 136 249 2.0
e 136 42 1.0
e 136 22 1.0
e 137 264 44.0
e 137 251 6.0
e 137 39 43.0
e 137 124 44.0
e 137 126 45.0
e 137 297 5.0
e 138 0 41.0
e 138 18 35.0
e 138 74 34.0
e 138 40 48.0
e 138 123 31.0
e 139 233 1.0
e 139 154 1.0
e 139 272 24.0
e 139 314 1.0
e 140 243 1.0
e 140 73 1.0
e 140 307 1.0
e 140 315 2.0
e 141 211 1.0
e 141 257 1.0
e 141 288 37.0
e 142 158 1.0
e 142 130 2.0
e 142 311 2.0
e 142 255 14.0
e 143 237 1.0
e 143 73 2.0
e 143 102 1.0
e 143 152 2.0
e 144 254 1.0
e 144 41 7.0
e 144 159 1.0
e 144 149 1.0
e 145 10 1.0
e 145 81 3.0
e 145 283 34.0
e 145 245 33.0
e 146 294 35.0
e 146 29 1.0
e 146 173 49.0
e 146 193 24.0
e 147 229 1.0
e 147 247 1.0
e 147 68 2.0
e 147 315 1.0
e 148 270 1.0
e 148 295 1.0
e 148 57 1.0
e 148 257 1.0
e 149 280 2.0
e 149 84 1.0
e 149 40 1.0
e 149 279 1.0
e 150 193 19.0
e 150 202 1.0
e 150 239 1.0
e 150 299 1.0
e 151 234 1.0
e 151 300 1.0
e 151 51 2.0
e 152 65 25.0
e 152 48 1.0
e 152 92 9.0
e 152 194 43.0
e 153 47 1.0
e 153 39 2.0
e 153 109 2.0
e 153 147 2.0
e 154 127 1.0
e 154 293 13.0
e 154 208 30.0
e 154 221 1.0
e 155 174 25.0
e 155 146 7.0
e 155 15 7.0
e 155 200 23.0
e 155 115 35.0
e 155 255 3.0
e 156 256 3.0
e 156 1 1.0
e 156 172 1.0
e 156 169 1.0
e 157 67 1.0
e 157 103 1.0
e 157 252 1.0
e 157 80 1.0
e 158 179 1.0
e 158 248 1.0
e 158 30 3.0
e 158 43 1.0
e 159 163 1.0
e 159 48 1.0
e 159 139 1.0
e 159 220 1.0
e 160 287 44.0
e 160 296 26.0
e 160 114 37.0
e 160 186 7.0
e 160 17 10.0
e 160 255 44.0
e 161 204 1.0
e 161 4 1.0
e 161 33 1.0
e 161 178 1.0
e 162 214 1.0
e 162 258 1.0
e 162 156 2.0
e 162 186 1.0
e 163 227 2.0
e 163 171 1.0
e 163 189 1.0
e 163 74 1.0
e 164 50 30.0
e 164 103 1.0
e 164 299 1.0
e 164 76 2.0
e 165 126 33.0
e 165 315 7.0
e 165 49 25.0
e 165 248 8.0
e 165 262 7.0
e 165 41 10.0
e 165 128 43.0
e 166 116 1.0
e 166 154 1.0
e 166 49 1.0
e 166 94 1.0
e 167 33 1.0
e 167 187 1.0
e 167 8 1.0
e 167 258 1.0
e 168 48 1.0
e 168 261 1.0
e 168 44 3.0
e 168 106 1.0
e 169 216 1.0
e 169 66 1.0
e 169 56 1.0
e 169 12 1.0
e 170 190 1.0
e 170 139 1.0
e 170 130 1.0
e 170 83 2.0
e 171 25 2.0
e 171 61 1.0
e 171 119 1.0
e 171 148 1.0
e 172 133 2.0
e 172 4 1.0
e 172 95 1.0
e 172 38 1.0
e 173 232 3.0
e 173 260 22.0
e 173 78 46.0
e 173 68 24.0
e 174 221 2.0
e 174 224 1.0
e 174 146 1.0
e 174 67 1.0
e 175 164 2.0
e 175 135 1.0
e 175 249 2.0
e 175 314 1.0
e 176 259 2.0
e 176 175 1.0
e 176 215 38.0
e 176 221 2.0
e 177 215 38.0
e 177 255 42.0
e 177 147 1.0
e 177 97 1.0
e 178 254 1.0
e 178 63 1.0
e 178 288 43.0
e 178 0 15.0
e 179 58 1.0
e 179 226 1.0
e 179 281 1.0
e 179 198 1.0
e 180 28 1.0
e 180 117 1.0
e 180 175 1.0
e 180 112 1.0
e 181 266 1.0
e 181 28 1.0
e 181 300 1.0
e 181 177 1.0
e 182 5 25.0
e 182 17 4.0
e 182 303 1.0
e 182 150 3.0
e 183 140 1.0
e 183 35 1.0
e 183 249 1.0
e 183 186 1.0
e 184 253 1.0
e 184 251 1.0
e 184 291 1.0
e 184 250 1.0
e 185 138 19.0
e 185 39 28.0
e 185 265 26.0
e 185 232 23.0
e 185 165 49.0
e 186 166 1.0
e 186 200 1.0
e 186 234 1.0
e 186 185 32.0
e 187 172 1.0
e 187 186 1.0
e 187 191 2.0
e 187 0 18.0
e 188 235 1.0
e 188 24 1.0
e 188 132 1.0
e 188 219 1.0
e 189 313 1.0
e 189 148 1.0
e 189 109 1.0
e 189 176 1.0
e 190 89 1.0
e 190 76 1.0
e 190 103 1.0
e 190 85 3.0
e 191 105 1.0
e 191 256 1.0
e 191 135 2.0
e 191 2 44.0
e 192 200 1.0
e 192 7 2.0
e 192 52 2.0
e 192 14 1.0
e 193 24 40.0
e 193 203 43.0
e 193 48 9.0
e 193 246 8.0
e 193 268 1.0
e 194 298 19.0
e 194 236 19.0
e 194 90 32.0
e 194 14 32.0
e 194 305 9.0
e 194 137 30.0
e 195 70 1.0
e 195 135 1.0
e 195 36 1.0
e 195 231 1.0
e 196 36 1.0
e 196 108 1.0
e 196 72 1.0
e 196 281 1.0
e 197 131 1.0
e 197 115 37.0
e 197 313 1.0
e 197 24 1.0
e 198 207 2.0
e 198 199 2.0
e 198 69 1.0
e 198 223 1.0
e 199 83 3.0
e 199 125 1.0
e 199 273 45.0
e 199 290 2.0
e 200 272 41.0
e 200 69 1.0
e 200 35 1.0
e 200 206 1.0
e 201 288 14.0
e 201 129 1.0
e 201 68 1.0
e 201 162 1.0
e 202 53 2.0
e 202 146 1.0
e 202 216 1.0
e 202 46 1.0
e 203 156 1.0
e 203 236 2.0
e 203 292 1.0
e 203 317 1.0
e 204 218 1.0
e 204 17 21.0
e 204 217 1.0
e 204 121 2.0
e 205 61 1.0
e 205 272 30.0
e 205 280 1.0
e 205 21 1.0
e 206 184 1.0
e 206 141 2.0
e 206 225 2.0
e 206 117 1.0
e 207 254 3.0
e 207 213 1.0
e 207 283 5.0
e 207 8 2.0
e 208 48 9.0
e 208 152 45.0
e 208 314 23.0
e 208 153 33.0
e 209 111 1.0
e 209 122 1.0
e 209 103 1.0
e 210 36 1.0
e 210 98 2.0
e 210 152 1.0
e 210 113 2.0
e 211 215 17.0
e 211 37 1.0
e 211 316 1.0
e 211 41 40.0
e 212 282 2.0
e 212 62 1.0
e 212 187 1.0
e 213 134 1.0
e 213 87 1.0
e 213 255 37.0
e 213 221 2.0
e 214 183 1.0
e 214 303 1.0
e 214 199 1.0
e 214 234 1.0
e 215 309 27.0
e 215 53 16.0
e 215 225 17.0
e 215 245 14.0
e 216 14 1.0
e 216 45 1.0
e 216 198 1.0
e 216 184 1.0
e 217 299 1.0
e 217 226 1.0
e 217 71 48.0
e 217 101 42.0
e 218 273 28.0
e 218 237 1.0
e 218 286 1.0
e 218 134 1.0
e 219 100 1.0
e 219 113 1.0
e 219 105 1.0
e 219 313 1.0
e 220 12 1.0
e 220 72 1.0
e 220 26 1.0
e 220 311 1.0
e 221 6 1.0
e 221 97 1.0
e 221 245 2.0
e 221 177 1.0
e 222 42 2.0
e 222 288 24.0
e 222 254 2.0
e 222 309 1.0
e 223 149 1.0
e 223 133 1.0
e 223 135 1.0
e 223 289 1.0
e 224 273 24.0
e 224 102 1.0
e 224 202 2.0
e 224 162 2.0
e 225 176 1.0
e 225 217 2.0
e 225 68 2.0
e 225 203 1.0
e 226 27 1.0
e 226 242 1.0
e 226 7 2.0
e 226 274 1.0
e 227 144 1.0
e 227 31 2.0
e 227 301 2.0
e 227 67 1.0
e 228 295 1.0
e 228 288 12.0
e 228 12 1.0
e 228 294 32.0
e 229 107 1.0
e 229 129 1.0
e 229 6 1.0
e 229 212 2.0
e 230 215 14.0
e 230 226 1.0
e 230 66 1.0
e 230 79 1.0
e 231 272 3.0
e 231 111 1.0
e 231 253 1.0
e 231 82 2.0
e 232 148 1.0
e 232 246 1.0
e 232 315 1.0
e 232 242 1.0
e 233 26 1.0
e 233 64 1.0
e 233 15 1.0
e 233 188 1.0
e 234 281 1.0
e 234 23 1.0
e 234 184 1.0
e 234 61 1.0
e 235 121 2.0
e 235 127 1.0
e 235 32 1.0
e 235 204 1.0
e 236 58 1.0
e 236 274 1.0
e 236 83 1.0
e 236 160 47.0
e 237 24 2.0
e 237 309 2.0
e 237 201 2.0
e 237 194 26.0
e 238 80 2.0
e 238 190 2.0
e 238 6 1.0
e 238 317 1.0
e 239 240 2.0
e 239 171 1.0
e 239 30 1.0
e 239 229 1.0
e 240 164 1.0
e 240 307 1.0
e 240 20 1.0
e 240 13 2.0
e 241 44 1.0
e 241 299 1.0
e 241 121 2.0
e 241 282 1.0
e 242 129 2.0
e 242 162 1.0
e 242 281 1.0
e 242 257 1.0
e 243 163 2.0
e 243 308 1.0
e 243 271 1.0
e 243 188 1.0
e 244 108 2.0
e 244 258 2.0
e 244 29 1.0
e 244 22 3.0
e 245 212 26.0
e 245 12 2.0
e 245 309 19.0
e 245 55 31.0
e 246 98 1.0
e 246 256 2.0
e 246 176 1.0
e 246 127 2.0
e 247 277 2.0
e 247 318 1.0
e 247 206 1.0
e 247 72 1.0
e 248 68 1.0
e 248 139 1.0
e 248 296 1.0
e 248 65 40.0
e 249 31 1.0
e 249 111 2.0
e 249 60 29.0
e 249 308 1.0
e 250 80 1.0
e 250 78 1.0
e 250 183 1.0
e 250 151 1.0
e 251 277 1.0
e 251 281 1.0
e 251 101 49.0
e 251 240 1.0
e 252 14 1.0
e 252 302 1.0
e 252 206 1.0
e 252 195 1.0
e 253 242 1.0
e 253 93 1.0
e 253 190 1.0
e 253 281 1.0
e 254 168 1.0
e 254 70 1.0
e 254 76 1.0
e 255 39 20.0
e 255 151 30.0
e 255 254 45.0
e 255 289 35.0
e 256 132 1.0
e 256 140 1.0
e 256 89 1.0
e 256 105 1.0
e 257 184 1.0
e 257 290 1.0
e 257 14 1.0
e 257 216 1.0
e 258 64 1.0
e 258 249 1.0
e 258 222 1.0
e 258 149 1.0
e 259 171 1.0
e 259 36 1.0
e 259 131 1.0
e 259 294 35.0
e 260 112 1.0
e 260 130 1.0
e 260 168 1.0
e 260 305 18.0
e 261 257 2.0
e 261 236 2.0
e 261 28 1.0
e 261 165 9.0
e 262 156 13.0
e 262 266 42.0
e 262 301 48.0
e 263 70 1.0
e 263 106 1.0
e 263 101 6.0
e 263 65 39.0
e 264 315 2.0
e 264 171 2.0
e 264 78 2.0
e 264 39 1.0
e 265 142 2.0
e 265 247 1.0
e 265 147 1.0
e 265 2 30.0
e 266 116 1.0
e 266 0 44.0
e 266 147 1.0
e 266 113 3.0
e 267 109 2.0
e 267 45 1.0
e 267 263 1.0
e 267 181 1.0
e 268 76 34.0
e 268 297 14.0
e 268 179 36.0
e 268 149 49.0
e 268 262 7.0
e 268 283 42.0
e 269 174 2.0
e 269 273 15.0
e 269 164 2.0
e 269 157 2.0
e 270 204 1.0
e 270 67 1.0
e 270 30 1.0
e 270 208 35.0
e 271 29 1.0
e 271 182 1.0
e 271 16 1.0
e 271 122 1.0
e 272 74 14.0
e 272 128 20.0
e 272 111 28.0
e 272 137 49.0
e 273 124 22.0
e 273 262 28.0
e 273 149 35.0
e 273 81 20.0
e 274 104 2.0
e 274 151 1.0
e 274 82 2.0
e 274 252 1.0
e 275 200 1.0
e 275 198 1.0
e 275 306 1.0
e 275 26 1.0
e 276 144 1.0
e 276 273 11.0
e 276 5 13.0
e 276 146 1.0
e 277 56 1.0
e 277 307 1.0
e 277 20 1.0
e 277 102 1.0
e 278 256 1.0
e 278 230 1.0
e 278 249 1.0
e 278 29 1.0
e 279 305 14.0
e 279 102 1.0
e 279 211 1.0
e 279 60 29.0
e 280 16 1.0
e 280 77 1.0
e 280 294 25.0
e 280 1 2.0
e 281 108 1.0
e 281 62 1.0
e 281 277 1.0
e 281 191 2.0
e 282 196 1.0
e 282 59 1.0
e 282 218 1.0
e 282 295 1.0
e 283 186 25.0
e 283 236 14.0
e 283 152 45.0
e 283 230 28.0
e 283 138 20.0
e 284 314 1.0
e 284 229 1.0
e 284 154 1.0
e 284 260 1.0
e 285 11 1.0
e 285 25 1.0
e 285 94 1.0
e 285 222 1.0
e 286 3 2.0
e 286 278 1.0
e 286 181 1.0
e 286 236 1.0
e 287 173 4.0
e 287 60 4.0
e 287 311 3.0
e 287 316 2.0
e 288 22 25.0
e 288 83 42.0
e 288 35 4.0
e 288 18 32.0
e 289 280 1.0
e 289 257 2.0
e 289 47 1.0
e 290 61 1.0
e 290 247 1.0
e 290 29 1.0
e 290 250 1.0
e 291 206 1.0
e 291 6 1.0
e 291 193 30.0
e 292 167 1.0
e 292 262 40.0
e 292 195 1.0
e 292 187 1.0
e 293 118 45.0
e 293 104 37.0
e 293 282 24.0
e 293 312 36.0
e 293 50 40.0
e 293 294 34.0
e 293 193 47.0
e 294 62 12.0
e 294 115 39.0
e 294 79 33.0
e 294 59 18.0
e 295 93 1.0
e 295 204 1.0
e 295 157 1.0
e 295 117 1.0
e 296 96 47.0
e 296 52 1.0
e 296 191 1.0
e 296 134 1.0
e 297 286 6.0
e 297 244 35.0
e 297 318 47.0
e 297 91 36.0
e 297 155 3.0
e 297 185 26.0
e 298 198 1.0
e 298 202 1.0
e 298 286 2.0
e 298 229 1.0
e 299 52 1.0
e 299 138 14.0
e 299 195 2.0
e 299 252 3.0
e 300 175 1.0
e 300 220 1.0
e 300 153 1.0
e 300 56 1.0
e 301 178 1.0
e 301 43 1.0
e 301 113 1.0
e 301 300 2.0
e 302 275 1.0
e 302 159 1.0
e 302 237 2.0
e 302 134 2.0
e 303 236 1.0
e 303 96 2.0
e 303 11 2.0
e 303 252 1.0
e 304 114 1.0
e 304 127 1.0
e 304 93 1.0
e 304 150 1.0
e 305 100 42.0
e 305 238 7.0
e 305 62 11.0
e 305 71 31.0
e 305 160 35.0
e 306 291 2.0
e 306 145 1.0
e 306 119 1.0
e 306 127 1.0
e 307 131 1.0
e 307 111 1.0
e 307 4 1.0
e 307 211 1.0
e 308 210 1.0
e 308 191 1.0
e 308 269 1.0
e 308 152 1.0
e 309 244 1.0
e 309 218 1.0
e 309 179 1.0
e 309 77 1.0
e 310 204 1.0
e 310 268 13.0
e 310 2 21.0
e 310 1 1.0
e 311 67 1.0
e 311 314 2.0
e 311 317 1.0
e 311 272 8.0
e 312 60 39.0
e 312 3 1.0
e 312 216 1.0
e 312 118 1.0
e 313 282 1.0
e 313 4 1.0
e 313 132 1.0
e 313 265 1.0
e 314 223 2.0
e 314 199 1.0
e 314 274 1.0
e 314 267 2.0
e 315 291 1.0
e 315 234 1.0
e 315 4 2.0
e 315 31 1.0
e 316 313 2.0
e 316 291 2.0
e 316 204 2.0
e 316 84 2.0
e 317 235 1.0
e 317 255 35.0
e 317 85 1.0
e 317 274 1.0
e 318 45 2.0
e 318 11 1.0
e 318 42 1.0
e 318 50 22.0
e 319 309 1.0
e 319 76 1.0
e 319 118 1.0
e 319 171 1.0
